c 
c MolecularSimulation 0.9.3
c Simulation written: Jan 13 2012 -- 15:17:57
c Test: Ogihara-Ray
c Input: ./data/testCNF/SWEEP_R4_K3_N16_M64_S000.cnf
c 
s UNSATISFIABLE
v 0
c algorithmTime:  0
c solutionMemory: 0
c mixCount:       56
c extractCount:   320
c appendCount:    28
c splitCount:     14
c spliceCount:    0
c purifyCount:    78
c 
